z3_origin/DDC_ProveIneq_Mitrinovic_4_3.txt
unsat
(:cnf-encoding-aux-vars 2
 :max-memory            18.52
 :memory                18.42
 :nlsat-arith-var       3
 :nlsat-atoms           14
 :nlsat-bool-var        4
 :nlsat-clauses         20
 :nlsat-conflicts       5
 :nlsat-decisions       2
 :nlsat-propagations    17
 :nlsat-stages          4
 :num-allocs            60164
 :rlimit-count          3682
 :time                  0.00
 :total-time            0.02)
